/*********************************************
 * OPL 12.6.0.0 Data
 * Author: Adrian Rodriguez Bazaga, Pau Rodriguez Esmerats
 * Creation Date: 22/11/2017 at 18:56:20
 *********************************************/

nNurses=107;
maxConsec=2;
maxPresence=7;
maxHours=5;
minHours=1;
demand= [19 20 41 31 20 41 31 21 28 13 6 2 8 4 10 3 9 3 4 2 18 35 19 30  ];
